Copyright (C) 2013-2015, Filipe Brandao
Build (method = -2)
  #dp: 82944
  Step-3' Graph: 583 vertices and 41900 arcs (0.34s)
  Step-4' Graph: 549 vertices and 41832 arcs (0.35s)
  #V4/#V3 = 0.94
  #A4/#A3 = 1.00
Ready! (0.35s)
Optimize a model with 808 rows, 41833 columns and 124405 nonzeros
Found heuristic solution: objective 420
Presolve removed 3 rows and 6 columns
Presolve time: 0.24s
Presolved: 805 rows, 41827 columns, 123442 nonzeros
Variable types: 0 continuous, 41827 integer (20120 binary)
Optimize a model with 805 rows, 41827 columns and 123442 nonzeros
Presolved: 805 rows, 41827 columns, 123442 nonzeros

Root barrier log...

Ordering time: 0.01s

Barrier statistics:
 AA' NZ     : 7.327e+04
 Factor NZ  : 1.448e+05 (roughly 20 MBytes of memory)
 Factor Ops : 3.659e+07 (less than 1 second per iteration)
 Threads    : 1

                  Objective                Residual
Iter       Primal          Dual         Primal    Dual     Compl     Time
   0   5.16117479e+04 -1.74356343e+06  6.74e+05 1.38e-01  1.31e+02     0s
   1   1.51983130e+04 -3.36164683e+05  6.70e+04 1.33e-15  1.49e+01     0s
   2   4.63964801e+03 -9.07032364e+04  1.19e+04 2.53e-02  2.93e+00     0s
   3   2.90464846e+03 -3.59226574e+04  2.84e+03 7.12e-03  8.84e-01     0s
   4   1.60943322e+03 -1.00576562e+04  7.56e+02 1.15e-03  2.41e-01     0s
   5   9.98939239e+02 -5.83830196e+03  3.44e+02 4.45e-04  1.26e-01     0s
   6   6.09959108e+02 -2.91845538e+03  1.25e+02 8.88e-16  5.64e-02     0s
   7   5.00393685e+02 -1.21451346e+03  6.95e+01 9.96e-16  2.60e-02     0s
   8   4.46407981e+02 -9.58080220e+02  4.11e+01 1.02e-15  1.98e-02     0s
   9   4.01539146e+02 -6.73587437e+02  3.05e+01 9.19e-16  1.48e-02     0s
  10   3.74766644e+02 -5.50329381e+02  2.63e+01 8.92e-16  1.27e-02     0s
  11   3.15542037e+02 -4.51608092e+02  2.02e+01 8.63e-16  1.03e-02     0s
  12   2.88941407e+02 -3.75121107e+02  1.67e+01 8.88e-16  8.83e-03     0s
  13   2.39793926e+02 -2.01032097e+02  1.02e+01 1.02e-15  5.72e-03     0s
  14   2.18388110e+02 -1.26470718e+02  6.98e+00 8.87e-16  4.39e-03     0s
  15   2.11277710e+02 -3.20220183e+01  5.72e+00 7.28e-16  3.08e-03     0s
  16   2.07711360e+02 -1.75350401e+01  5.11e+00 9.58e-16  2.84e-03     0s
  17   2.02222539e+02  7.24183763e+00  3.85e+00 8.76e-16  2.43e-03     0s
  18   1.98639411e+02  3.13751086e+01  3.26e+00 9.48e-16  2.07e-03     0s
  19   1.96544795e+02  4.99741813e+01  2.89e+00 8.76e-16  1.81e-03     0s
  20   1.93758146e+02  6.15961826e+01  2.53e+00 1.03e-15  1.63e-03     0s
  21   1.91959171e+02  6.82585253e+01  2.33e+00 1.00e-15  1.52e-03     0s
  22   1.84429294e+02  1.03155025e+02  1.70e+00 8.32e-16  9.96e-04     0s
  23   1.80864740e+02  1.28108519e+02  1.34e+00 2.16e-15  6.45e-04     0s
  24   1.79795993e+02  1.38378875e+02  1.19e+00 1.90e-15  5.06e-04     1s
  25   1.77213589e+02  1.40534966e+02  8.27e-01 1.89e-15  4.45e-04     1s
  26   1.74299199e+02  1.50802002e+02  4.63e-01 1.30e-15  2.84e-04     1s
  27   1.72279251e+02  1.57322012e+02  3.11e-01 1.08e-15  1.80e-04     1s
  28   1.70521832e+02  1.59171146e+02  1.82e-01 1.07e-15  1.37e-04     1s
  29   1.70149712e+02  1.61419745e+02  1.57e-01 1.22e-15  1.05e-04     1s
  30   1.69580255e+02  1.61636272e+02  1.24e-01 1.27e-15  9.55e-05     1s
  31   1.69181077e+02  1.62399353e+02  9.96e-02 1.37e-15  8.15e-05     1s
  32   1.68683433e+02  1.63935181e+02  6.97e-02 1.39e-15  5.70e-05     1s
  33   1.68553191e+02  1.64527032e+02  6.27e-02 1.20e-15  4.83e-05     1s
  34   1.68371230e+02  1.65174070e+02  5.33e-02 1.13e-15  3.84e-05     1s
  35   1.67935083e+02  1.65802054e+02  2.92e-02 1.01e-15  2.56e-05     1s
  36   1.67852673e+02  1.66248026e+02  2.52e-02 9.72e-16  1.93e-05     1s
  37   1.67772702e+02  1.66280856e+02  2.16e-02 1.06e-15  1.79e-05     1s
  38   1.67679293e+02  1.66525371e+02  1.72e-02 1.11e-15  1.38e-05     1s
  39   1.67603198e+02  1.66608412e+02  1.42e-02 1.15e-15  1.19e-05     1s
  40   1.67595238e+02  1.66633138e+02  1.39e-02 1.29e-15  1.15e-05     1s
  41   1.67545231e+02  1.66733611e+02  1.16e-02 1.29e-15  9.73e-06     1s
  42   1.67498867e+02  1.66780880e+02  9.88e-03 1.25e-15  8.61e-06     1s
  43   1.67463007e+02  1.66932874e+02  8.35e-03 1.32e-15  6.36e-06     1s
  44   1.67454181e+02  1.66958824e+02  8.02e-03 1.24e-15  5.94e-06     1s
  45   1.67446714e+02  1.66999529e+02  7.63e-03 1.41e-15  5.37e-06     1s
  46   1.67405394e+02  1.66997774e+02  6.01e-03 1.37e-15  4.89e-06     1s
  47   1.67372787e+02  1.67151614e+02  4.66e-03 9.71e-16  2.66e-06     1s
  48   1.67350079e+02  1.67151391e+02  3.79e-03 9.78e-16  2.39e-06     1s
  49   1.67336853e+02  1.67204596e+02  3.23e-03 9.43e-16  1.59e-06     1s
  50   1.67325607e+02  1.67220570e+02  2.75e-03 9.78e-16  1.26e-06     1s
  51   1.67317996e+02  1.67222689e+02  2.40e-03 1.13e-15  1.15e-06     1s
  52   1.67301686e+02  1.67231811e+02  1.72e-03 1.03e-15  8.41e-07     1s
  53   1.67280505e+02  1.67246624e+02  1.01e-03 8.73e-16  4.08e-07     1s
  54   1.67278943e+02  1.67247926e+02  9.44e-04 7.88e-16  3.74e-07     1s
  55   1.67273124e+02  1.67249368e+02  7.25e-04 8.24e-16  2.86e-07     1s
  56   1.67270435e+02  1.67250029e+02  6.29e-04 9.99e-16  2.46e-07     1s
  57   1.67251017e+02  1.67250295e+02  1.55e-05 8.88e-16  8.67e-09     1s
  58   1.67250516e+02  1.67250515e+02  2.12e-11 8.33e-16  8.85e-12     1s

Barrier solved model in 58 iterations and 1.13 seconds
Optimal objective 1.67250516e+02


Root relaxation: objective 1.672505e+02, 6818 iterations, 1.32 seconds

    Nodes    |    Current Node    |     Objective Bounds      |     Work
 Expl Unexpl |  Obj  Depth IntInf | Incumbent    BestBd   Gap | It/Node Time

     0     0  167.25052    0  139  420.00000  167.25052  60.2%     -    2s
H    0     0                     169.0000000  167.25052  1.04%     -    2s
H    0     0                     168.0000000  167.25052  0.45%     -    6s

Explored 0 nodes (13414 simplex iterations) in 6.05 seconds
Thread count was 1 (of 4 available processors)

Optimal solution found (tolerance 0.00e+00)
Best objective 1.680000000000e+02, best bound 1.680000000000e+02, gap 0.0%
Preprocessing time: 0.43 seconds
Gurobi run time: 6.05 seconds
Total run time: 6.48 seconds
Objective: 168
Solution:
1 x [i=1, i=189, i=190]
2 x [i=1, i=1]
1 x [i=2, i=152, i=234]
1 x [i=2, i=153, i=233]
1 x [i=3, i=163, i=224]
1 x [i=3, i=207]
1 x [i=4, i=168, i=219]
1 x [i=4, i=178, i=206]
1 x [i=5, i=131, i=255]
1 x [i=6, i=138, i=244]
1 x [i=6, i=171, i=212]
1 x [i=6, i=179, i=201]
1 x [i=7, i=144, i=237]
1 x [i=7, i=149, i=233]
1 x [i=7, i=160, i=224]
1 x [i=8, i=159, i=224]
1 x [i=8, i=186, i=188]
1 x [i=9, i=162, i=220]
1 x [i=9, i=184, i=191]
1 x [i=10, i=151, i=229]
1 x [i=10, i=181, i=195]
1 x [i=11, i=161, i=219]
1 x [i=12, i=158, i=221]
1 x [i=13, i=144, i=232]
1 x [i=13, i=147, i=230]
1 x [i=14, i=123, i=255]
1 x [i=15, i=121, i=256]
1 x [i=15, i=165, i=210]
1 x [i=16, i=160, i=215]
1 x [i=17, i=156, i=218]
1 x [i=18, i=155, i=224]
1 x [i=19, i=127, i=253]
1 x [i=20, i=124, i=246]
1 x [i=20, i=125, i=245]
1 x [i=21, i=128, i=241]
1 x [i=21, i=143, i=225]
1 x [i=21, i=168, i=199]
1 x [i=21, i=172, i=194]
1 x [i=21, i=175, i=191]
1 x [i=22, i=132, i=236]
1 x [i=23, i=128, i=239]
1 x [i=24, i=110, i=257]
1 x [i=24, i=154, i=211]
1 x [i=25, i=143, i=222]
1 x [i=26, i=116, i=251]
1 x [i=26, i=126, i=238]
1 x [i=27, i=166, i=196]
1 x [i=28, i=173, i=186]
1 x [i=29, i=118, i=245]
1 x [i=29, i=123, i=240]
1 x [i=29, i=124, i=237]
1 x [i=29, i=137, i=223]
1 x [i=30, i=132, i=231]
1 x [i=31, i=116, i=246]
1 x [i=31, i=128, i=232]
1 x [i=31, i=135, i=224]
1 x [i=31, i=149, i=209]
1 x [i=32, i=100, i=258]
1 x [i=32, i=147, i=210]
1 x [i=32, i=154, i=202]
1 x [i=33, i=108, i=252]
1 x [i=33, i=151, i=204]
1 x [i=34, i=176, i=181]
1 x [i=35, i=147, i=206]
1 x [i=35, i=164, i=189]
1 x [i=36, i=126, i=230]
1 x [i=36, i=170, i=187]
1 x [i=36, i=175, i=181]
1 x [i=37, i=113, i=243]
1 x [i=37, i=166, i=186]
1 x [i=38, i=129, i=232]
1 x [i=38, i=134, i=226]
1 x [i=39, i=109, i=245]
1 x [i=39, i=118, i=235]
1 x [i=39, i=162, i=188]
1 x [i=40, i=93, i=258]
1 x [i=41, i=135, i=215]
1 x [i=42, i=92, i=257]
1 x [i=42, i=125, i=230]
1 x [i=43, i=103, i=249]
1 x [i=43, i=150, i=197]
1 x [i=44, i=101, i=250]
1 x [i=44, i=116, i=241]
1 x [i=44, i=148, i=198]
1 x [i=45, i=110, i=238]
1 x [i=46, i=100, i=249]
1 x [i=46, i=133, i=216]
1 x [i=47, i=126, i=221]
1 x [i=48, i=88, i=259]
1 x [i=49, i=93, i=251]
1 x [i=49, i=99, i=246]
1 x [i=49, i=121, i=225]
1 x [i=49, i=143, i=198]
1 x [i=49, i=144, i=197]
1 x [i=49, i=165, i=180]
1 x [i=50, i=98, i=245]
1 x [i=50, i=146, i=193]
1 x [i=51, i=106, i=236]
1 x [i=51, i=112, i=231]
1 x [i=52, i=80, i=258]
1 x [i=53, i=88, i=250]
1 x [i=54, i=77, i=258]
1 x [i=54, i=150, i=185]
1 x [i=55, i=76, i=258]
1 x [i=55, i=94, i=242]
1 x [i=56, i=147, i=185]
1 x [i=57, i=150, i=183]
1 x [i=58, i=106, i=230]
1 x [i=59, i=135, i=193]
1 x [i=60, i=81, i=247]
1 x [i=61, i=99, i=228]
1 x [i=62, i=113, i=213]
1 x [i=62, i=159, i=169]
1 x [i=63, i=77, i=248]
1 x [i=63, i=85, i=241]
1 x [i=64, i=71, i=253]
1 x [i=64, i=74, i=250]
1 x [i=64, i=77, i=247]
1 x [i=65, i=86, i=237]
1 x [i=66, i=67, i=254]
1 x [i=66, i=83, i=240]
1 x [i=67, i=73, i=248]
1 x [i=67, i=75, i=246]
1 x [i=67, i=111, i=210]
1 x [i=67, i=137, i=182]
1 x [i=68, i=83, i=238]
1 x [i=69, i=159, i=163]
1 x [i=70, i=146, i=174]
1 x [i=70, i=248]
1 x [i=72, i=117, i=199]
1 x [i=72, i=147, i=170]
1 x [i=73, i=74, i=242]
1 x [i=73, i=81, i=235]
1 x [i=73, i=88, i=227]
1 x [i=74, i=100, i=217]
1 x [i=74, i=111, i=203]
1 x [i=75, i=107, i=208]
1 x [i=75, i=108, i=207]
1 x [i=76, i=136, i=178]
1 x [i=78, i=147, i=167]
1 x [i=79, i=135, i=177]
1 x [i=81, i=83, i=229]
1 x [i=82, i=95, i=214]
1 x [i=82, i=104, i=205]
1 x [i=83, i=86, i=224]
1 x [i=84, i=102, i=205]
1 x [i=87, i=108, i=192]
1 x [i=89, i=140, i=160]
1 x [i=90, i=142, i=157]
1 x [i=91, i=96, i=200]
1 x [i=93, i=138, i=158]
1 x [i=95, i=125, i=172]
1 x [i=97, i=141, i=152]
1 x [i=98, i=122, i=174]
1 x [i=101, i=117, i=176]
1 x [i=102, i=115, i=178]
1 x [i=103, i=139, i=148]
1 x [i=105, i=130, i=160]
1 x [i=106, i=108, i=180]
1 x [i=111, i=118, i=166]
1 x [i=112, i=119, i=164]
1 x [i=112, i=133, i=148]
1 x [i=114, i=130, i=149]
1 x [i=116, i=116, i=164]
1 x [i=119, i=125, i=149]
1 x [i=119, i=128, i=146]
1 x [i=120, i=128, i=145]
